p cnf 361 1
361 0
w 1 0.772342
w 2 1 1
w 2 -1 0
w 3 2 0.335974
w 3 -2 0.0686572
w 4 3 0
w 4 -3 1
w 5 4 1
w 5 -4 0
w 6 5 1
w 6 -5 0
w 7 6 1
w 7 -6 0
w 8 7 0
w 8 -7 1
w 9 8 1
w 9 -8 0
w 10 9 1
w 10 -9 0
w 11 10 0
w 11 -10 1
w 12 11 0.447805
w 12 -11 0.0293202
w 13 12 0.370096
w 13 -12 0.15342
w 14 13 0
w 14 -13 1
w 15 14 0
w 15 -14 1
w 16 15 1
w 16 -15 0
w 17 16 0
w 17 -16 1
w 18 17 0
w 18 -17 1
w 19 18 0.586728
w 19 -18 0.219234
w 20 1 0.591304
w 20 -1 0.502369
w 21 20 2 1
w 21 20 -2 0
w 21 -20 2 1
w 21 -20 -2 0
w 22 21 3 1
w 22 21 -3 0
w 22 -21 3 0
w 22 -21 -3 1
w 23 22 4 1
w 23 22 -4 1
w 23 -22 4 0
w 23 -22 -4 0
w 24 23 5 0.723706
w 24 23 -5 0.830958
w 24 -23 5 0.104564
w 24 -23 -5 0.733893
w 25 24 6 0.446346
w 25 24 -6 0.0800551
w 25 -24 6 0.799753
w 25 -24 -6 0.876155
w 26 25 7 0.386481
w 26 25 -7 0.0953883
w 26 -25 7 0.815692
w 26 -25 -7 0.977785
w 27 26 8 0
w 27 26 -8 1
w 27 -26 8 0
w 27 -26 -8 0
w 28 27 9 0
w 28 27 -9 1
w 28 -27 9 0
w 28 -27 -9 1
w 29 28 10 0
w 29 28 -10 0
w 29 -28 10 1
w 29 -28 -10 0
w 30 29 11 1
w 30 29 -11 1
w 30 -29 11 1
w 30 -29 -11 0
w 31 30 12 1
w 31 30 -12 0
w 31 -30 12 0
w 31 -30 -12 0
w 32 31 13 1
w 32 31 -13 0
w 32 -31 13 0
w 32 -31 -13 0
w 33 32 14 1
w 33 32 -14 0
w 33 -32 14 0
w 33 -32 -14 1
w 34 33 15 0
w 34 33 -15 0
w 34 -33 15 1
w 34 -33 -15 0
w 35 34 16 0.22409
w 35 34 -16 0.95029
w 35 -34 16 0.458075
w 35 -34 -16 0.556581
w 36 35 17 0
w 36 35 -17 0
w 36 -35 17 1
w 36 -35 -17 0
w 37 36 18 1
w 37 36 -18 1
w 37 -36 18 1
w 37 -36 -18 0
w 38 37 19 0.606646
w 38 37 -19 0.649831
w 38 -37 19 0.610775
w 38 -37 -19 0.94966
w 39 20 1
w 39 -20 0
w 40 39 21 1
w 40 39 -21 0
w 40 -39 21 1
w 40 -39 -21 1
w 41 40 22 1
w 41 40 -22 1
w 41 -40 22 1
w 41 -40 -22 0
w 42 41 23 1
w 42 41 -23 1
w 42 -41 23 0
w 42 -41 -23 1
w 43 42 24 0
w 43 42 -24 1
w 43 -42 24 0
w 43 -42 -24 1
w 44 43 25 0.630274
w 44 43 -25 0.898356
w 44 -43 25 0.994014
w 44 -43 -25 0.628756
w 45 44 26 1
w 45 44 -26 0
w 45 -44 26 1
w 45 -44 -26 0
w 46 45 27 0
w 46 45 -27 1
w 46 -45 27 1
w 46 -45 -27 0
w 47 46 28 0
w 47 46 -28 1
w 47 -46 28 0
w 47 -46 -28 1
w 48 47 29 0.119753
w 48 47 -29 0.522126
w 48 -47 29 0.560874
w 48 -47 -29 0.620602
w 49 48 30 0
w 49 48 -30 1
w 49 -48 30 1
w 49 -48 -30 0
w 50 49 31 0.319407
w 50 49 -31 0.647715
w 50 -49 31 0.717872
w 50 -49 -31 0.313421
w 51 50 32 0
w 51 50 -32 1
w 51 -50 32 0
w 51 -50 -32 1
w 52 51 33 1
w 52 51 -33 0
w 52 -51 33 1
w 52 -51 -33 0
w 53 52 34 1
w 53 52 -34 0
w 53 -52 34 1
w 53 -52 -34 1
w 54 53 35 0
w 54 53 -35 0
w 54 -53 35 0
w 54 -53 -35 1
w 55 54 36 0.819466
w 55 54 -36 0.821989
w 55 -54 36 0.750869
w 55 -54 -36 0.2887
w 56 55 37 0.570385
w 56 55 -37 0.608107
w 56 -55 37 0.487145
w 56 -55 -37 0.288257
w 57 56 38 0.763617
w 57 56 -38 0.511131
w 57 -56 38 0.878795
w 57 -56 -38 0.279619
w 58 39 0
w 58 -39 1
w 59 58 40 0.973278
w 59 58 -40 0.777867
w 59 -58 40 0.873855
w 59 -58 -40 0.671667
w 60 59 41 0
w 60 59 -41 1
w 60 -59 41 0
w 60 -59 -41 0
w 61 60 42 0
w 61 60 -42 0
w 61 -60 42 1
w 61 -60 -42 1
w 62 61 43 1
w 62 61 -43 0
w 62 -61 43 1
w 62 -61 -43 0
w 63 62 44 1
w 63 62 -44 0
w 63 -62 44 1
w 63 -62 -44 1
w 64 63 45 0
w 64 63 -45 0
w 64 -63 45 0
w 64 -63 -45 1
w 65 64 46 0.558007
w 65 64 -46 0.288972
w 65 -64 46 0.699092
w 65 -64 -46 0.431862
w 66 65 47 0.815278
w 66 65 -47 0.392957
w 66 -65 47 0.125253
w 66 -65 -47 0.941495
w 67 66 48 1
w 67 66 -48 0
w 67 -66 48 1
w 67 -66 -48 1
w 68 67 49 0
w 68 67 -49 0
w 68 -67 49 0
w 68 -67 -49 1
w 69 68 50 1
w 69 68 -50 0
w 69 -68 50 0
w 69 -68 -50 0
w 70 69 51 0.0317006
w 70 69 -51 0.553008
w 70 -69 51 0.479556
w 70 -69 -51 0.347395
w 71 70 52 1
w 71 70 -52 1
w 71 -70 52 0
w 71 -70 -52 0
w 72 71 53 1
w 72 71 -53 0
w 72 -71 53 0
w 72 -71 -53 1
w 73 72 54 0.404496
w 73 72 -54 0.127593
w 73 -72 54 0.669498
w 73 -72 -54 0.596959
w 74 73 55 0
w 74 73 -55 1
w 74 -73 55 1
w 74 -73 -55 1
w 75 74 56 0.581386
w 75 74 -56 0.204557
w 75 -74 56 0.173086
w 75 -74 -56 0.486059
w 76 75 57 1
w 76 75 -57 0
w 76 -75 57 0
w 76 -75 -57 1
w 77 58 0.477091
w 77 -58 0.467732
w 78 77 59 1
w 78 77 -59 1
w 78 -77 59 0
w 78 -77 -59 1
w 79 78 60 0.820788
w 79 78 -60 0.569115
w 79 -78 60 0.669917
w 79 -78 -60 0.225284
w 80 79 61 0
w 80 79 -61 1
w 80 -79 61 0
w 80 -79 -61 0
w 81 80 62 0.320794
w 81 80 -62 0.806795
w 81 -80 62 0.761851
w 81 -80 -62 0.90218
w 82 81 63 1
w 82 81 -63 1
w 82 -81 63 0
w 82 -81 -63 0
w 83 82 64 0.464063
w 83 82 -64 0.315722
w 83 -82 64 0.771153
w 83 -82 -64 0.941154
w 84 83 65 0.272675
w 84 83 -65 0.59157
w 84 -83 65 0.72061
w 84 -83 -65 0.371204
w 85 84 66 1
w 85 84 -66 1
w 85 -84 66 1
w 85 -84 -66 0
w 86 85 67 1
w 86 85 -67 0
w 86 -85 67 1
w 86 -85 -67 1
w 87 86 68 0.183404
w 87 86 -68 0.845389
w 87 -86 68 0.754888
w 87 -86 -68 0.945255
w 88 87 69 1
w 88 87 -69 1
w 88 -87 69 0
w 88 -87 -69 0
w 89 88 70 0.0418071
w 89 88 -70 0.691508
w 89 -88 70 0.0814647
w 89 -88 -70 0.81296
w 90 89 71 0
w 90 89 -71 1
w 90 -89 71 0
w 90 -89 -71 0
w 91 90 72 0
w 91 90 -72 0
w 91 -90 72 1
w 91 -90 -72 1
w 92 91 73 1
w 92 91 -73 1
w 92 -91 73 0
w 92 -91 -73 1
w 93 92 74 1
w 93 92 -74 1
w 93 -92 74 1
w 93 -92 -74 0
w 94 93 75 0
w 94 93 -75 1
w 94 -93 75 0
w 94 -93 -75 0
w 95 94 76 1
w 95 94 -76 0
w 95 -94 76 0
w 95 -94 -76 1
w 96 77 0.846057
w 96 -77 0.0266075
w 97 96 78 0.0702894
w 97 96 -78 0.612137
w 97 -96 78 0.401541
w 97 -96 -78 0.525109
w 98 97 79 0
w 98 97 -79 0
w 98 -97 79 0
w 98 -97 -79 1
w 99 98 80 0.422115
w 99 98 -80 0.806098
w 99 -98 80 0.612088
w 99 -98 -80 0.911149
w 100 99 81 0.140291
w 100 99 -81 0.345438
w 100 -99 81 0.795507
w 100 -99 -81 0.434734
w 101 100 82 1
w 101 100 -82 1
w 101 -100 82 1
w 101 -100 -82 0
w 102 101 83 0.704974
w 102 101 -83 0.016075
w 102 -101 83 0.92844
w 102 -101 -83 0.649675
w 103 102 84 1
w 103 102 -84 1
w 103 -102 84 0
w 103 -102 -84 1
w 104 103 85 1
w 104 103 -85 0
w 104 -103 85 1
w 104 -103 -85 0
w 105 104 86 1
w 105 104 -86 0
w 105 -104 86 1
w 105 -104 -86 0
w 106 105 87 0.896776
w 106 105 -87 0.450297
w 106 -105 87 0.29783
w 106 -105 -87 0.556695
w 107 106 88 0
w 107 106 -88 1
w 107 -106 88 1
w 107 -106 -88 1
w 108 107 89 0
w 108 107 -89 1
w 108 -107 89 1
w 108 -107 -89 1
w 109 108 90 0
w 109 108 -90 0
w 109 -108 90 1
w 109 -108 -90 0
w 110 109 91 1
w 110 109 -91 0
w 110 -109 91 0
w 110 -109 -91 1
w 111 110 92 1
w 111 110 -92 1
w 111 -110 92 1
w 111 -110 -92 0
w 112 111 93 0.909841
w 112 111 -93 0.284021
w 112 -111 93 0.192468
w 112 -111 -93 0.466536
w 113 112 94 1
w 113 112 -94 0
w 113 -112 94 0
w 113 -112 -94 1
w 114 113 95 0.431118
w 114 113 -95 0.311933
w 114 -113 95 0.0891558
w 114 -113 -95 0.881777
w 115 96 0.756842
w 115 -96 0.383653
w 116 115 97 0.682917
w 116 115 -97 0.987118
w 116 -115 97 0.506713
w 116 -115 -97 0.880936
w 117 116 98 0.957874
w 117 116 -98 0.189671
w 117 -116 98 0.270385
w 117 -116 -98 0.136808
w 118 117 99 0
w 118 117 -99 0
w 118 -117 99 1
w 118 -117 -99 0
w 119 118 100 0
w 119 118 -100 0
w 119 -118 100 0
w 119 -118 -100 1
w 120 119 101 0
w 120 119 -101 0
w 120 -119 101 0
w 120 -119 -101 1
w 121 120 102 0.474403
w 121 120 -102 0.731705
w 121 -120 102 0.777401
w 121 -120 -102 0.231245
w 122 121 103 0
w 122 121 -103 0
w 122 -121 103 1
w 122 -121 -103 1
w 123 122 104 0.911133
w 123 122 -104 0.219212
w 123 -122 104 0.984769
w 123 -122 -104 0.181518
w 124 123 105 0
w 124 123 -105 1
w 124 -123 105 1
w 124 -123 -105 1
w 125 124 106 1
w 125 124 -106 1
w 125 -124 106 0
w 125 -124 -106 1
w 126 125 107 0
w 126 125 -107 0
w 126 -125 107 1
w 126 -125 -107 0
w 127 126 108 0
w 127 126 -108 1
w 127 -126 108 1
w 127 -126 -108 1
w 128 127 109 0.485584
w 128 127 -109 0.482596
w 128 -127 109 0.746346
w 128 -127 -109 0.588061
w 129 128 110 0
w 129 128 -110 0
w 129 -128 110 1
w 129 -128 -110 1
w 130 129 111 1
w 130 129 -111 1
w 130 -129 111 1
w 130 -129 -111 0
w 131 130 112 1
w 131 130 -112 0
w 131 -130 112 0
w 131 -130 -112 1
w 132 131 113 1
w 132 131 -113 1
w 132 -131 113 0
w 132 -131 -113 1
w 133 132 114 1
w 133 132 -114 1
w 133 -132 114 0
w 133 -132 -114 0
w 134 115 1
w 134 -115 0
w 135 134 116 0
w 135 134 -116 1
w 135 -134 116 1
w 135 -134 -116 0
w 136 135 117 0.94979
w 136 135 -117 0.236972
w 136 -135 117 0.647503
w 136 -135 -117 0.268958
w 137 136 118 0.793183
w 137 136 -118 0.914679
w 137 -136 118 0.0231939
w 137 -136 -118 0.597121
w 138 137 119 0
w 138 137 -119 1
w 138 -137 119 0
w 138 -137 -119 0
w 139 138 120 1
w 139 138 -120 1
w 139 -138 120 0
w 139 -138 -120 0
w 140 139 121 0.163086
w 140 139 -121 0.541001
w 140 -139 121 0.650754
w 140 -139 -121 0.586054
w 141 140 122 1
w 141 140 -122 1
w 141 -140 122 0
w 141 -140 -122 0
w 142 141 123 0
w 142 141 -123 1
w 142 -141 123 1
w 142 -141 -123 1
w 143 142 124 0
w 143 142 -124 0
w 143 -142 124 1
w 143 -142 -124 0
w 144 143 125 0.15504
w 144 143 -125 0.402829
w 144 -143 125 0.611877
w 144 -143 -125 0.893159
w 145 144 126 0
w 145 144 -126 1
w 145 -144 126 0
w 145 -144 -126 0
w 146 145 127 0
w 146 145 -127 1
w 146 -145 127 0
w 146 -145 -127 0
w 147 146 128 1
w 147 146 -128 0
w 147 -146 128 0
w 147 -146 -128 0
w 148 147 129 0
w 148 147 -129 1
w 148 -147 129 0
w 148 -147 -129 0
w 149 148 130 0
w 149 148 -130 0
w 149 -148 130 1
w 149 -148 -130 1
w 150 149 131 1
w 150 149 -131 0
w 150 -149 131 0
w 150 -149 -131 1
w 151 150 132 0
w 151 150 -132 1
w 151 -150 132 1
w 151 -150 -132 1
w 152 151 133 0
w 152 151 -133 1
w 152 -151 133 1
w 152 -151 -133 1
w 153 134 1
w 153 -134 0
w 154 153 135 0.366526
w 154 153 -135 0.763836
w 154 -153 135 0.585664
w 154 -153 -135 0.234656
w 155 154 136 0.0260327
w 155 154 -136 0.605214
w 155 -154 136 0.22893
w 155 -154 -136 0.138667
w 156 155 137 1
w 156 155 -137 0
w 156 -155 137 0
w 156 -155 -137 1
w 157 156 138 0
w 157 156 -138 0
w 157 -156 138 1
w 157 -156 -138 1
w 158 157 139 0
w 158 157 -139 0
w 158 -157 139 0
w 158 -157 -139 1
w 159 158 140 0
w 159 158 -140 1
w 159 -158 140 1
w 159 -158 -140 1
w 160 159 141 1
w 160 159 -141 1
w 160 -159 141 1
w 160 -159 -141 0
w 161 160 142 1
w 161 160 -142 1
w 161 -160 142 0
w 161 -160 -142 1
w 162 161 143 1
w 162 161 -143 0
w 162 -161 143 1
w 162 -161 -143 1
w 163 162 144 0
w 163 162 -144 0
w 163 -162 144 0
w 163 -162 -144 1
w 164 163 145 1
w 164 163 -145 0
w 164 -163 145 1
w 164 -163 -145 0
w 165 164 146 0
w 165 164 -146 0
w 165 -164 146 0
w 165 -164 -146 1
w 166 165 147 0
w 166 165 -147 0
w 166 -165 147 1
w 166 -165 -147 1
w 167 166 148 1
w 167 166 -148 0
w 167 -166 148 0
w 167 -166 -148 1
w 168 167 149 1
w 168 167 -149 1
w 168 -167 149 0
w 168 -167 -149 1
w 169 168 150 1
w 169 168 -150 1
w 169 -168 150 0
w 169 -168 -150 1
w 170 169 151 1
w 170 169 -151 1
w 170 -169 151 0
w 170 -169 -151 0
w 171 170 152 0
w 171 170 -152 0
w 171 -170 152 1
w 171 -170 -152 0
w 172 153 0
w 172 -153 1
w 173 172 154 0
w 173 172 -154 1
w 173 -172 154 0
w 173 -172 -154 1
w 174 173 155 1
w 174 173 -155 1
w 174 -173 155 0
w 174 -173 -155 0
w 175 174 156 1
w 175 174 -156 0
w 175 -174 156 0
w 175 -174 -156 1
w 176 175 157 1
w 176 175 -157 0
w 176 -175 157 1
w 176 -175 -157 1
w 177 176 158 0
w 177 176 -158 0
w 177 -176 158 0
w 177 -176 -158 1
w 178 177 159 0
w 178 177 -159 1
w 178 -177 159 0
w 178 -177 -159 0
w 179 178 160 0
w 179 178 -160 0
w 179 -178 160 0
w 179 -178 -160 1
w 180 179 161 0.00677444
w 180 179 -161 0.528704
w 180 -179 161 0.149875
w 180 -179 -161 0.876467
w 181 180 162 0.867339
w 181 180 -162 0.0142379
w 181 -180 162 0.340352
w 181 -180 -162 0.00322113
w 182 181 163 0
w 182 181 -163 1
w 182 -181 163 1
w 182 -181 -163 0
w 183 182 164 0
w 183 182 -164 0
w 183 -182 164 1
w 183 -182 -164 1
w 184 183 165 1
w 184 183 -165 0
w 184 -183 165 0
w 184 -183 -165 1
w 185 184 166 0
w 185 184 -166 1
w 185 -184 166 1
w 185 -184 -166 0
w 186 185 167 0
w 186 185 -167 1
w 186 -185 167 1
w 186 -185 -167 1
w 187 186 168 0
w 187 186 -168 1
w 187 -186 168 0
w 187 -186 -168 0
w 188 187 169 0.734211
w 188 187 -169 0.120466
w 188 -187 169 0.451528
w 188 -187 -169 0.636505
w 189 188 170 1
w 189 188 -170 0
w 189 -188 170 0
w 189 -188 -170 0
w 190 189 171 0
w 190 189 -171 0
w 190 -189 171 1
w 190 -189 -171 1
w 191 172 0
w 191 -172 1
w 192 191 173 1
w 192 191 -173 0
w 192 -191 173 1
w 192 -191 -173 1
w 193 192 174 0
w 193 192 -174 1
w 193 -192 174 0
w 193 -192 -174 0
w 194 193 175 1
w 194 193 -175 1
w 194 -193 175 0
w 194 -193 -175 1
w 195 194 176 1
w 195 194 -176 1
w 195 -194 176 0
w 195 -194 -176 0
w 196 195 177 0
w 196 195 -177 1
w 196 -195 177 1
w 196 -195 -177 1
w 197 196 178 0
w 197 196 -178 0
w 197 -196 178 0
w 197 -196 -178 1
w 198 197 179 0.272915
w 198 197 -179 0.336641
w 198 -197 179 0.311682
w 198 -197 -179 0.761762
w 199 198 180 0.0231186
w 199 198 -180 0.286613
w 199 -198 180 0.173583
w 199 -198 -180 0.912044
w 200 199 181 1
w 200 199 -181 1
w 200 -199 181 1
w 200 -199 -181 0
w 201 200 182 0.769565
w 201 200 -182 0.258929
w 201 -200 182 0.73376
w 201 -200 -182 0.923995
w 202 201 183 1
w 202 201 -183 0
w 202 -201 183 1
w 202 -201 -183 0
w 203 202 184 1
w 203 202 -184 0
w 203 -202 184 1
w 203 -202 -184 0
w 204 203 185 0.222102
w 204 203 -185 0.523375
w 204 -203 185 0.0930966
w 204 -203 -185 0.983864
w 205 204 186 1
w 205 204 -186 1
w 205 -204 186 0
w 205 -204 -186 0
w 206 205 187 0.841603
w 206 205 -187 0.0209558
w 206 -205 187 0.193637
w 206 -205 -187 0.177922
w 207 206 188 0.14976
w 207 206 -188 0.947487
w 207 -206 188 0.0874445
w 207 -206 -188 0.883519
w 208 207 189 0.647887
w 208 207 -189 0.273132
w 208 -207 189 0.48821
w 208 -207 -189 0.159075
w 209 208 190 1
w 209 208 -190 1
w 209 -208 190 0
w 209 -208 -190 1
w 210 191 0.0297397
w 210 -191 0.317316
w 211 210 192 1
w 211 210 -192 0
w 211 -210 192 0
w 211 -210 -192 0
w 212 211 193 1
w 212 211 -193 0
w 212 -211 193 1
w 212 -211 -193 0
w 213 212 194 1
w 213 212 -194 1
w 213 -212 194 0
w 213 -212 -194 1
w 214 213 195 1
w 214 213 -195 1
w 214 -213 195 1
w 214 -213 -195 0
w 215 214 196 0
w 215 214 -196 0
w 215 -214 196 1
w 215 -214 -196 1
w 216 215 197 1
w 216 215 -197 0
w 216 -215 197 0
w 216 -215 -197 1
w 217 216 198 1
w 217 216 -198 0
w 217 -216 198 0
w 217 -216 -198 0
w 218 217 199 0
w 218 217 -199 1
w 218 -217 199 1
w 218 -217 -199 1
w 219 218 200 0.57611
w 219 218 -200 0.169273
w 219 -218 200 0.100418
w 219 -218 -200 0.692892
w 220 219 201 0
w 220 219 -201 1
w 220 -219 201 1
w 220 -219 -201 1
w 221 220 202 1
w 221 220 -202 1
w 221 -220 202 0
w 221 -220 -202 0
w 222 221 203 0
w 222 221 -203 0
w 222 -221 203 1
w 222 -221 -203 0
w 223 222 204 0
w 223 222 -204 1
w 223 -222 204 1
w 223 -222 -204 0
w 224 223 205 1
w 224 223 -205 0
w 224 -223 205 0
w 224 -223 -205 0
w 225 224 206 0
w 225 224 -206 1
w 225 -224 206 0
w 225 -224 -206 1
w 226 225 207 0.303362
w 226 225 -207 0.734551
w 226 -225 207 0.700798
w 226 -225 -207 0.067654
w 227 226 208 1
w 227 226 -208 0
w 227 -226 208 0
w 227 -226 -208 1
w 228 227 209 1
w 228 227 -209 1
w 228 -227 209 1
w 228 -227 -209 0
w 229 210 0
w 229 -210 1
w 230 229 211 0.652218
w 230 229 -211 0.458921
w 230 -229 211 0.561883
w 230 -229 -211 0.284407
w 231 230 212 1
w 231 230 -212 1
w 231 -230 212 1
w 231 -230 -212 0
w 232 231 213 0
w 232 231 -213 0
w 232 -231 213 1
w 232 -231 -213 0
w 233 232 214 1
w 233 232 -214 0
w 233 -232 214 1
w 233 -232 -214 1
w 234 233 215 0.216344
w 234 233 -215 0.516183
w 234 -233 215 0.812053
w 234 -233 -215 0.53032
w 235 234 216 0
w 235 234 -216 1
w 235 -234 216 1
w 235 -234 -216 0
w 236 235 217 0.513583
w 236 235 -217 0.291389
w 236 -235 217 0.510691
w 236 -235 -217 0.79799
w 237 236 218 0.718356
w 237 236 -218 0.568206
w 237 -236 218 0.237582
w 237 -236 -218 0.0350882
w 238 237 219 0
w 238 237 -219 1
w 238 -237 219 1
w 238 -237 -219 1
w 239 238 220 0
w 239 238 -220 0
w 239 -238 220 1
w 239 -238 -220 1
w 240 239 221 1
w 240 239 -221 0
w 240 -239 221 0
w 240 -239 -221 1
w 241 240 222 0
w 241 240 -222 0
w 241 -240 222 1
w 241 -240 -222 1
w 242 241 223 0.976824
w 242 241 -223 0.840876
w 242 -241 223 0.35059
w 242 -241 -223 0.774813
w 243 242 224 0.0689465
w 243 242 -224 0.34302
w 243 -242 224 0.0756034
w 243 -242 -224 0.104035
w 244 243 225 1
w 244 243 -225 1
w 244 -243 225 1
w 244 -243 -225 0
w 245 244 226 1
w 245 244 -226 0
w 245 -244 226 1
w 245 -244 -226 0
w 246 245 227 0.0625854
w 246 245 -227 0.411206
w 246 -245 227 0.334004
w 246 -245 -227 0.179755
w 247 246 228 0
w 247 246 -228 0
w 247 -246 228 1
w 247 -246 -228 1
w 248 229 1
w 248 -229 0
w 249 248 230 1
w 249 248 -230 0
w 249 -248 230 0
w 249 -248 -230 0
w 250 249 231 0
w 250 249 -231 0
w 250 -249 231 1
w 250 -249 -231 1
w 251 250 232 0
w 251 250 -232 1
w 251 -250 232 1
w 251 -250 -232 1
w 252 251 233 1
w 252 251 -233 0
w 252 -251 233 1
w 252 -251 -233 1
w 253 252 234 1
w 253 252 -234 1
w 253 -252 234 0
w 253 -252 -234 1
w 254 253 235 0
w 254 253 -235 1
w 254 -253 235 1
w 254 -253 -235 1
w 255 254 236 0
w 255 254 -236 1
w 255 -254 236 1
w 255 -254 -236 1
w 256 255 237 0.42796
w 256 255 -237 0.979915
w 256 -255 237 0.432076
w 256 -255 -237 0.29313
w 257 256 238 0
w 257 256 -238 1
w 257 -256 238 0
w 257 -256 -238 0
w 258 257 239 0.890792
w 258 257 -239 0.508592
w 258 -257 239 0.0407342
w 258 -257 -239 0.182912
w 259 258 240 0
w 259 258 -240 1
w 259 -258 240 0
w 259 -258 -240 1
w 260 259 241 0
w 260 259 -241 0
w 260 -259 241 1
w 260 -259 -241 1
w 261 260 242 0
w 261 260 -242 1
w 261 -260 242 0
w 261 -260 -242 0
w 262 261 243 0
w 262 261 -243 1
w 262 -261 243 1
w 262 -261 -243 0
w 263 262 244 0.344766
w 263 262 -244 0.203978
w 263 -262 244 0.455094
w 263 -262 -244 0.00602319
w 264 263 245 0
w 264 263 -245 1
w 264 -263 245 1
w 264 -263 -245 1
w 265 264 246 0
w 265 264 -246 1
w 265 -264 246 0
w 265 -264 -246 0
w 266 265 247 0.757949
w 266 265 -247 0.671508
w 266 -265 247 0.837037
w 266 -265 -247 0.596291
w 267 248 0
w 267 -248 1
w 268 267 249 1
w 268 267 -249 0
w 268 -267 249 0
w 268 -267 -249 0
w 269 268 250 0.299808
w 269 268 -250 0.210607
w 269 -268 250 0.732985
w 269 -268 -250 0.188484
w 270 269 251 0
w 270 269 -251 1
w 270 -269 251 1
w 270 -269 -251 1
w 271 270 252 0.458212
w 271 270 -252 0.597031
w 271 -270 252 0.288977
w 271 -270 -252 0.537939
w 272 271 253 0
w 272 271 -253 1
w 272 -271 253 1
w 272 -271 -253 0
w 273 272 254 1
w 273 272 -254 1
w 273 -272 254 0
w 273 -272 -254 1
w 274 273 255 0.16337
w 274 273 -255 0.463574
w 274 -273 255 0.441221
w 274 -273 -255 0.867632
w 275 274 256 0
w 275 274 -256 1
w 275 -274 256 0
w 275 -274 -256 1
w 276 275 257 1
w 276 275 -257 1
w 276 -275 257 0
w 276 -275 -257 1
w 277 276 258 0
w 277 276 -258 1
w 277 -276 258 0
w 277 -276 -258 1
w 278 277 259 0.855039
w 278 277 -259 0.434667
w 278 -277 259 0.114589
w 278 -277 -259 0.559179
w 279 278 260 0
w 279 278 -260 1
w 279 -278 260 1
w 279 -278 -260 0
w 280 279 261 1
w 280 279 -261 1
w 280 -279 261 1
w 280 -279 -261 0
w 281 280 262 0.501207
w 281 280 -262 0.286521
w 281 -280 262 0.970125
w 281 -280 -262 0.230423
w 282 281 263 0
w 282 281 -263 1
w 282 -281 263 0
w 282 -281 -263 0
w 283 282 264 0
w 283 282 -264 1
w 283 -282 264 1
w 283 -282 -264 0
w 284 283 265 0
w 284 283 -265 1
w 284 -283 265 0
w 284 -283 -265 1
w 285 284 266 0
w 285 284 -266 1
w 285 -284 266 1
w 285 -284 -266 1
w 286 267 0
w 286 -267 1
w 287 286 268 1
w 287 286 -268 1
w 287 -286 268 0
w 287 -286 -268 1
w 288 287 269 0.246455
w 288 287 -269 0.583549
w 288 -287 269 0.176454
w 288 -287 -269 0.572504
w 289 288 270 1
w 289 288 -270 0
w 289 -288 270 1
w 289 -288 -270 0
w 290 289 271 0
w 290 289 -271 0
w 290 -289 271 0
w 290 -289 -271 1
w 291 290 272 0
w 291 290 -272 1
w 291 -290 272 0
w 291 -290 -272 0
w 292 291 273 1
w 292 291 -273 1
w 292 -291 273 1
w 292 -291 -273 0
w 293 292 274 0
w 293 292 -274 1
w 293 -292 274 1
w 293 -292 -274 1
w 294 293 275 0
w 294 293 -275 1
w 294 -293 275 1
w 294 -293 -275 1
w 295 294 276 0.0264828
w 295 294 -276 0.264176
w 295 -294 276 0.286731
w 295 -294 -276 0.1955
w 296 295 277 1
w 296 295 -277 1
w 296 -295 277 0
w 296 -295 -277 1
w 297 296 278 0
w 297 296 -278 1
w 297 -296 278 1
w 297 -296 -278 0
w 298 297 279 1
w 298 297 -279 1
w 298 -297 279 0
w 298 -297 -279 1
w 299 298 280 0.428059
w 299 298 -280 0.942123
w 299 -298 280 0.198011
w 299 -298 -280 0.55057
w 300 299 281 1
w 300 299 -281 0
w 300 -299 281 0
w 300 -299 -281 0
w 301 300 282 1
w 301 300 -282 0
w 301 -300 282 1
w 301 -300 -282 0
w 302 301 283 1
w 302 301 -283 1
w 302 -301 283 0
w 302 -301 -283 1
w 303 302 284 0
w 303 302 -284 1
w 303 -302 284 0
w 303 -302 -284 0
w 304 303 285 1
w 304 303 -285 1
w 304 -303 285 0
w 304 -303 -285 0
w 305 286 0
w 305 -286 1
w 306 305 287 1
w 306 305 -287 0
w 306 -305 287 1
w 306 -305 -287 0
w 307 306 288 1
w 307 306 -288 0
w 307 -306 288 1
w 307 -306 -288 0
w 308 307 289 0.979685
w 308 307 -289 0.780684
w 308 -307 289 0.897705
w 308 -307 -289 0.694035
w 309 308 290 0
w 309 308 -290 1
w 309 -308 290 0
w 309 -308 -290 1
w 310 309 291 1
w 310 309 -291 0
w 310 -309 291 1
w 310 -309 -291 1
w 311 310 292 0
w 311 310 -292 1
w 311 -310 292 0
w 311 -310 -292 0
w 312 311 293 0
w 312 311 -293 1
w 312 -311 293 0
w 312 -311 -293 1
w 313 312 294 0
w 313 312 -294 0
w 313 -312 294 1
w 313 -312 -294 1
w 314 313 295 0
w 314 313 -295 0
w 314 -313 295 0
w 314 -313 -295 1
w 315 314 296 0
w 315 314 -296 1
w 315 -314 296 0
w 315 -314 -296 0
w 316 315 297 1
w 316 315 -297 1
w 316 -315 297 0
w 316 -315 -297 1
w 317 316 298 1
w 317 316 -298 0
w 317 -316 298 1
w 317 -316 -298 1
w 318 317 299 0.799111
w 318 317 -299 0.0597358
w 318 -317 299 0.292625
w 318 -317 -299 0.625451
w 319 318 300 1
w 319 318 -300 1
w 319 -318 300 0
w 319 -318 -300 0
w 320 319 301 1
w 320 319 -301 0
w 320 -319 301 0
w 320 -319 -301 0
w 321 320 302 0
w 321 320 -302 0
w 321 -320 302 1
w 321 -320 -302 0
w 322 321 303 0
w 322 321 -303 1
w 322 -321 303 0
w 322 -321 -303 1
w 323 322 304 0.0173393
w 323 322 -304 0.723184
w 323 -322 304 0.279039
w 323 -322 -304 0.871
w 324 305 1
w 324 -305 0
w 325 324 306 0.856429
w 325 324 -306 0.703601
w 325 -324 306 0.198694
w 325 -324 -306 0.194071
w 326 325 307 0
w 326 325 -307 0
w 326 -325 307 1
w 326 -325 -307 1
w 327 326 308 0.713616
w 327 326 -308 0.836745
w 327 -326 308 0.0357663
w 327 -326 -308 0.743279
w 328 327 309 1
w 328 327 -309 1
w 328 -327 309 0
w 328 -327 -309 1
w 329 328 310 1
w 329 328 -310 1
w 329 -328 310 0
w 329 -328 -310 0
w 330 329 311 0
w 330 329 -311 1
w 330 -329 311 1
w 330 -329 -311 1
w 331 330 312 0
w 331 330 -312 0
w 331 -330 312 1
w 331 -330 -312 1
w 332 331 313 1
w 332 331 -313 1
w 332 -331 313 1
w 332 -331 -313 0
w 333 332 314 1
w 333 332 -314 0
w 333 -332 314 0
w 333 -332 -314 0
w 334 333 315 0.00246416
w 334 333 -315 0.0890097
w 334 -333 315 0.12054
w 334 -333 -315 0.0629125
w 335 334 316 1
w 335 334 -316 0
w 335 -334 316 0
w 335 -334 -316 1
w 336 335 317 1
w 336 335 -317 1
w 336 -335 317 0
w 336 -335 -317 1
w 337 336 318 0
w 337 336 -318 1
w 337 -336 318 0
w 337 -336 -318 0
w 338 337 319 0
w 338 337 -319 1
w 338 -337 319 0
w 338 -337 -319 1
w 339 338 320 0
w 339 338 -320 1
w 339 -338 320 0
w 339 -338 -320 0
w 340 339 321 1
w 340 339 -321 0
w 340 -339 321 0
w 340 -339 -321 0
w 341 340 322 1
w 341 340 -322 0
w 341 -340 322 0
w 341 -340 -322 1
w 342 341 323 1
w 342 341 -323 0
w 342 -341 323 0
w 342 -341 -323 0
w 343 324 0
w 343 -324 1
w 344 343 325 0.198302
w 344 343 -325 0.435617
w 344 -343 325 0.666152
w 344 -343 -325 0.544781
w 345 344 326 0.486602
w 345 344 -326 0.600252
w 345 -344 326 0.949991
w 345 -344 -326 0.34671
w 346 345 327 0
w 346 345 -327 0
w 346 -345 327 1
w 346 -345 -327 0
w 347 346 328 1
w 347 346 -328 0
w 347 -346 328 1
w 347 -346 -328 1
w 348 347 329 1
w 348 347 -329 1
w 348 -347 329 0
w 348 -347 -329 1
w 349 348 330 0
w 349 348 -330 1
w 349 -348 330 1
w 349 -348 -330 0
w 350 349 331 0
w 350 349 -331 1
w 350 -349 331 0
w 350 -349 -331 0
w 351 350 332 1
w 351 350 -332 0
w 351 -350 332 0
w 351 -350 -332 0
w 352 351 333 0.769474
w 352 351 -333 0.958063
w 352 -351 333 0.53276
w 352 -351 -333 0.528361
w 353 352 334 0
w 353 352 -334 0
w 353 -352 334 0
w 353 -352 -334 1
w 354 353 335 0.86639
w 354 353 -335 0.0822936
w 354 -353 335 0.2697
w 354 -353 -335 0.0233826
w 355 354 336 0
w 355 354 -336 0
w 355 -354 336 1
w 355 -354 -336 0
w 356 355 337 0
w 356 355 -337 0
w 356 -355 337 1
w 356 -355 -337 0
w 357 356 338 1
w 357 356 -338 0
w 357 -356 338 1
w 357 -356 -338 1
w 358 357 339 1
w 358 357 -339 0
w 358 -357 339 0
w 358 -357 -339 1
w 359 358 340 0
w 359 358 -340 1
w 359 -358 340 0
w 359 -358 -340 1
w 360 359 341 0.911467
w 360 359 -341 0.661577
w 360 -359 341 0.0203826
w 360 -359 -341 0.93485
w 361 360 342 0.637099
w 361 360 -342 0.319829
w 361 -360 342 0.394635
w 361 -360 -342 0.642611